1039	653	774	1125	267	554	441	940	363	863
903	995	430	72	355	0	242	1077	815	1171
144	227	984	1039	899	469	311	821	83	0
827	457	304	626	527	761	686	50	1003	940
363	821	524	0	98	686	591	754	268	186
1125	0	604	852	186	267	375	684	524	790
623	99	863	527	430	929	1028	0	718	1100
554	304	253	171	0	375	98	469	616	711
0	518	684	303	774	850	171	384	908	1003
303	375	1124	253	984	1065	761	554	457	610
